884918
20, 9, 33, 57, 47, 95, 66, 4, 7, 39, 14, 81, 86, 45, 87, 88, 50, 36, 91, 53, 8, 89, 85, 3, 5, 64, 2, 27, 46, 28, 34, 71, 90, 59, 19, 12, 17, 26, 94, 40, 29, 79, 51, 78, 25, 73, 92, 84, 22, 43, 24, 52, 65, 54, 98, 23, 11, 67, 82, 58, 61, 1, 70, 74, 32, 13, 63, 60, 31, 62, 93, 49, 10, 56, 18, 69, 75, 6, 41, 77, 30, 96, 21, 16, 15, 83, 35, 97, 42, 44, 55, 72, 68, 99, 80, 37, 48, 76, 38
